p cnf 21 47
a 4 6 0
e 1 2 3 5 7 8 9 10 11 12 13 14 15 16 17 18 19 20 21 0
3 1 0
3 2 0
-1 -2 -3 0
3 4 -5 0
-3 -4 -5 0
3 -4 5 0
-3 4 5 0
7 -4 0
7 -6 0
4 6 -7 0
-8 -2 0
-8 -7 0
2 7 8 0
9 5 0
9 -8 0
-5 8 -9 0
-12 -10 0
-12 -11 0
10 11 12 0
1 12 -13 0
-1 -12 -13 0
1 -12 13 0
-1 12 13 0
-14 2 0
-14 6 0
-2 -6 14 0
-16 14 0
-16 -15 0
-14 15 16 0
17 13 0
17 16 0
-13 -16 -17 0
-19 1 0
-19 18 0
-1 -18 19 0
17 19 -20 0
-17 -19 -20 0
17 -19 20 0
-17 19 20 0
-21 -9 0
-21 -20 0
9 20 21 0
-6 -13 3 0
20 -17 -11 3 -7 13 12 0
5 -15 -19 -7 2 -20 -6 0
-15 20 -6 9 -8 14 0
21 0
